p td 28 84
5 1
5 4
6 3
8 5
8 7
9 5
9 1
10 7
10 4
10 3
11 9
11 7
11 1
12 4
12 11
12 5
12 8
13 5
14 1
14 7
14 3
15 1
15 10
16 4
16 14
16 9
17 10
17 2
17 14
18 5
18 12
18 6
18 11
18 3
18 7
19 17
19 12
20 13
20 18
20 11
20 3
20 19
20 1
21 12
21 10
21 8
21 2
22 19
22 8
22 3
22 17
22 20
23 17
23 20
23 21
23 18
23 15
24 19
24 22
25 5
25 19
25 24
25 1
25 8
25 15
25 23
26 1
26 24
26 8
26 9
26 20
26 12
26 4
26 15
26 5
26 23
27 21
27 14
27 1
27 9
28 6
28 15
28 14
28 16
